17	4
11	12	9	9	
0	0	0	0	0	3	2	3	4	
4	1	0	0	0	3	5	7	17	
3	0	0	0	2	1	17	
10	0	0	0	4	1	17	
10	0	0	1	0	3	6	9	10	
125	0	10	0	0	1	17	
25	0	3	0	0	3	8	11	17	
175	3	0	0	0	1	17	
100	0	0	0	1	3	13	14	16	
125	0	0	0	6	1	17	
175	0	0	0	6	1	12	
250	0	3	0	0	2	17	17	
2	0	7	0	0	2	17	17	
4	0	0	2	0	2	15	17	
5	0	5	0	0	1	17	
5	0	0	0	1	1	17	
0	0	0	0	0	0	
